&inputpp
    prefix  = 'al-nl11'
    outdir='/home/alessandro/scratch'
    filplot = 'al-nl11_charge'
    plot_num= 0
 /
 &plot
    nfile = 1
    filepp(1) = 'al-nl11_charge'
    weight(1) = 1.0
    iflag = 3
    output_format = 3
    fileout = 'al-nl11.rho.xsf'
 /
