&inputpp
    prefix  = 'hj'
    outdir='/home/alessandro/scratch'
    filplot = 'hj_charge'
    plot_num= 0
 /
 &plot
    nfile = 1
    filepp(1) = 'hj_charge'
    weight(1) = 1.0
    iflag = 3
    output_format = 3
    fileout = 'hj.rho.xsf'
 /
