 &inputpp
    prefix  = 'Al-100test'
    outdir='/home/alessandro/scratch'
    filplot = 'Al-100test_charge'
    plot_num= 0
 /
 &plot
    nfile = 1
    filepp(1) = 'Al-100test_charge'
    weight(1) = 1.0
    iflag = 3
    output_format = 3
    fileout = 'Al-100test.rho.xsf'
 /
