&CONTROL
  restart_mode='from_scratch',
  prefix='Al_bulk',
  pseudo_dir = '/home/alessandro/Quantum-Espresso/qe-6.5/pseudo/',
  outdir = '/home/alessandro/scratch',
  calculation = 'scf',
  tprnfor = .true.,
  tstress = .true.,
/
&SYSTEM
  ibrav = 2,
  celldm(1) = 7.471000,
  nat = 1,
  ntyp = 1,
  ecutwfc = 60.0,
  ecutrho = 240.0,
  occupations = 'smearing',
  smearing = 'mp',
  degauss = 0.0200,
/
&ELECTRONS
  mixing_beta = 0.70,
  conv_thr = 1d-8,
/
ATOMIC_SPECIES
  Al 26.981 Al.pz-vbc.UPF
ATOMIC_POSITIONS (alat)
  Al 0. 0. 0. 1 1 1
K_POINTS automatic
  8 8 8 1 1 1
